proyfinal/src/viki/013/andrea/andrea-localstore/experimentInOfficeAgust.take6/worker_11/e414b15b-aa55-484d-af1c-03759ca9a29c.als.cnf.out
Reading from standard input... Use '--help' for help.
============================[ Problem Statistics ]=============================
|                                                                             |
|  Number of variables:         87638                                         |
|  Number of clauses:          161767                                         |
|  Parse time:                   0.04 s                                       |
|                                                                             |
============================[ Search Statistics ]==============================
| Conflicts |          ORIGINAL         |          LEARNT          | Progress |
|           |    Vars  Clauses Literals |    Limit  Clauses Lit/Cl |          |
===============================================================================
|       100 |   63558   109514   273888 |    40155      100     28 | 27.477 % |
|       250 |   63558   109514   273888 |    44170      250     38 | 27.477 % |
|       475 |   63558   109514   273888 |    48587      475    131 | 27.477 % |
|       812 |   63558   109514   273888 |    53446      812    135 | 27.477 % |
|      1318 |   63553   109470   273798 |    58791     1316    128 | 27.482 % |
|      2077 |   63553   109454   273754 |    64670     2065    139 | 27.482 % |
|      3216 |   43827    50779   129344 |    71137     2926    125 | 49.991 % |
===============================================================================
restarts              : 23
conflicts             : 4501           (7150 /sec)
decisions             : 17905          (0.00 % random) (28443 /sec)
propagations          : 6536154        (10383138 /sec)
conflict literals     : 428294         (36.98 % deleted)
Memory used           : 28.04 MB
CPU time              : 0.629497 s

UNSATISFIABLE
